COMUNI = {
	citta_di_castello,
	castiglione_del_lago,
	assisi,
	spoleto,
	bastia_umbra,
	gualdo_tardino,
	amelia,
	marsciano,
};

NUMERO_COMUNI = 8;

ABITANTI_PER_COMUNE = [38, 15, 27, 36, 21, 14, 11, 18];

STRADE_TRA_COMUNI = [|
	false, false, false, false, false, false, false, false |
	false, false, false, false, false, false, false, false |
	false, false, false, false, true, false, false, false |
	false, false, false, false, false, false, false, false |
	false, false, true, false, false, false, false, false |
	false, false, false, false, false, false, false, false |
	false, false, false, false, false, false, false, false |
	false, false, false, false, false, false, false, false |
|];

RICHIESTE = [|
	1, 36, 10, 21, 7 |
	29, 2, 2, 30, 68 |
	5, 18, 46, 34, 32 |
	9, 11, 15, 46, 5 |
	0, 19, 7, 13, 8 |
	13, 20, 0, 1, 2 |
	25, 109, 9, 8, 39 |
	32, 20, 103, 94, 31 |
|];
